StudentsNr = 10;
InstructorsNr = 96;
DaysNr = 1;
SlotsPerDay = 20;
AvailabilitySlotsLenght = 10;
RoomNr = 2;
ProgrammNr = 2;
DegreeNr = 3;
RolesNr = 4;
CoursesNr = 10;
InstructorsProgramm = [{1}, {2}, {1}, {1}, {2}, {1, 2}, {2}, {1}, {2}, {2}, {1, 2}, {1, 2}, {1, 2}, {1, 2}, {1}, {1, 2}, {2}, {1, 2}, {1, 2}, {1}, {2}, {2}, {1}, {1}, {1, 2}, {1, 2}, {2}, {1, 2}, {1}, {1}, {1, 2}, {2}, {2}, {1}, {2}, {2}, {1}, {2}, {2}, {1, 2}, {2}, {1, 2}, {1}, {1}, {1}, {1}, {1}, {2}, {2}, {2}, {1}, {1}, {1}, {1}, {1}, {1}, {1, 2}, {1, 2}, {1, 2}, {1, 2}, {2}, {1, 2}, {1}, {1}, {1}, {2}, {2}, {1, 2}, {1}, {2}, {1, 2}, {1}, {1}, {1}, {1, 2}, {2}, {1, 2}, {2}, {1, 2}, {2}, {1, 2}, {2}, {1}, {2}, {2}, {2}, {2}, {1}, {1, 2}, {2}, {1, 2}, {1}, {1}, {2}, {2}, {2}];
InstructorRolesPerProgramm = [|{3, 6, 8, 11, 15, 23, 24, 28, 43, 44, 46, 47, 51, 55, 56, 57, 58, 64, 72, 73, 74, 79, 88, 91}, {1, 4, 8, 11, 12, 20, 25, 26, 28, 29, 34, 37, 40, 42, 47, 51, 52, 58, 62, 64, 65, 75, 81, 83, 89, 91, 92}, {3, 4, 12, 15, 20, 23, 25, 34, 42, 44, 45, 47, 52, 53, 56, 63, 65, 69, 71, 74, 79}, {1, 3, 6, 8, 11, 12, 13, 14, 15, 16, 23, 28, 29, 37, 40, 43, 46, 52, 57, 59, 63, 64, 73, 75, 77, 79, 81, 88, 91, 92, 93}|{6, 9, 11, 22, 28, 32, 33, 35, 39, 48, 57, 58, 67, 76, 79, 82, 86, 90, 91, 96}, {2, 7, 11, 12, 21, 22, 25, 26, 28, 32, 36, 40, 42, 48, 49, 58, 62, 67, 75, 81, 89, 90, 91, 96}, {2, 5, 7, 12, 21, 25, 27, 38, 41, 42, 48, 61, 66, 71, 76, 79, 80, 94}, {2, 5, 6, 9, 11, 12, 13, 14, 16, 22, 28, 32, 36, 38, 39, 40, 41, 49, 57, 59, 67, 75, 76, 77, 79, 81, 82, 84, 85, 90, 91}|];
InstructorsAvailability = [|0, 1, |0, 1, |0, 0, |0, 0, |1, 0, |0, 0, |0, 1, |0, 1, |1, 1, |0, 1, |1, 1, |0, 0, |1, 1, |1, 1, |0, 0, |0, 1, |0, 1, |0, 1, |1, 1, |1, 1, |1, 1, |1, 1, |0, 1, |0, 1, |1, 1, |1, 1, |1, 1, |0, 1, |0, 1, |1, 1, |0, 0, |0, 1, |0, 1, |1, 1, |1, 1, |1, 1, |0, 1, |1, 1, |1, 1, |1, 0, |1, 0, |1, 1, |1, 1, |1, 1, |1, 1, |0, 0, |0, 1, |0, 1, |1, 1, |1, 1, |0, 1, |0, 0, |1, 1, |1, 1, |0, 1, |1, 1, |0, 1, |1, 1, |0, 1, |0, 0, |0, 1, |1, 1, |0, 1, |0, 0, |0, 0, |0, 0, |0, 0, |0, 0, |1, 1, |1, 1, |1, 1, |0, 1, |0, 1, |1, 1, |1, 0, |0, 1, |0, 0, |0, 0, |1, 1, |0, 1, |0, 0, |1, 1, |1, 1, |1, 1, |0, 1, |1, 1, |1, 0, |1, 1, |0, 0, |0, 0, |0, 1, |0, 0, |0, 1, |0, 1, |1, 1, |0, 1|];
StudentsProgramm = [1, 2, 2, 2, 1, 1, 2, 2, 1, 1];
StudentsDegree = [3, 2, 3, 3, 3, 3, 3, 1, 2, 2];
StudentsSupervisorId = [57, 87, 91, 9, 68, 31, 32, 38, 75, 72];
StudentsCourseIds = [{5, 8, 10}, {10}, {3, 6, 8}, {1, 3, 8}, {1, 2, 10}, {1, 2, 9}, {4, 5, 9}, {4}, {9}, {10}];
StudentsAvailability = [|0, 0, |1, 1, |0, 0, |0, 0, |1, 1, |1, 1, |1, 1, |1, 0, |0, 1, |0, 0|];
TheoryticalMinCard = [0, 1, 0, 0, 1, 0, 0, 0, 0, 0];
CoursesInstructorIds = [{12, 19, 20, 22, 35, 36, 42, 51, 52, 53, 72, 77}, {4, 5, 10, 11, 12, 13, 14, 17, 21, 25, 26, 37, 39, 44, 54, 55, 57, 59, 60, 61, 65, 66, 67, 69, 71, 75, 76, 77, 78, 87, 88, 89, 91, 92, 93, 96}, {1, 2, 6, 7, 8, 9, 11, 13, 15, 17, 18, 22, 25, 27, 28, 30, 33, 34, 35, 36, 39, 41, 42, 43, 44, 45, 47, 51, 52, 55, 56, 57, 58, 60, 61, 62, 63, 64, 65, 70, 71, 73, 74, 75, 76, 79, 80, 82, 85, 88, 90, 91, 92, 93, 94, 95}, {2, 19, 20, 24, 26, 29, 33, 35, 46, 71, 75, 76, 79}, {2, 3, 4, 5, 7, 8, 10, 14, 15, 16, 18, 19, 20, 23, 25, 26, 27, 28, 31, 32, 33, 34, 35, 36, 37, 38, 39, 42, 44, 47, 52, 53, 55, 56, 57, 58, 59, 63, 64, 66, 68, 70, 71, 72, 74, 75, 76, 77, 79, 82, 84, 86, 88, 90, 91, 92, 94, 95}, {1, 3, 4, 5, 6, 8, 9, 10, 11, 12, 15, 17, 21, 23, 24, 25, 27, 28, 29, 31, 33, 34, 38, 39, 42, 43, 45, 47, 51, 52, 54, 55, 58, 59, 60, 69, 70, 71, 72, 76, 77, 78, 80, 81, 83, 84, 85, 89, 91, 93, 96}, {5, 8, 9, 11, 20, 24, 25, 32, 33, 34, 35, 45, 46, 47, 48, 51, 52, 54, 63, 67, 71, 79, 80, 82, 84, 90, 91, 93, 95}, {2, 3, 4, 5, 6, 9, 11, 14, 16, 20, 21, 22, 24, 26, 29, 30, 31, 32, 34, 35, 37, 38, 40, 42, 43, 46, 48, 49, 50, 51, 52, 54, 55, 56, 58, 59, 60, 61, 64, 65, 67, 68, 70, 76, 77, 79, 81, 82, 83, 84, 87, 88, 90, 91, 93, 94, 95}, {1, 2, 5, 6, 7, 9, 16, 18, 21, 23, 25, 26, 27, 29, 31, 35, 41, 50, 53, 54, 55, 56, 57, 60, 61, 63, 65, 66, 68, 72, 73, 76, 78, 80, 82, 85, 91, 93}, {1, 3, 5, 11, 12, 13, 18, 30, 31, 32, 46, 57, 58, 69, 75, 93}];
RolesDemands = [13, 17, 9, 18];
RolesContinuity = [1, 2];
ExamLen = [2, 2, 2, 2, 2, 2, 2, 1, 2, 2];
LunchTsMinLen = 0;
LunchStarts = [5..12];
SupervisorAvailable = 0;
OptimalLunchLenght = [0, 0];
OptimalStartTs = [2, 0];
OptimalFinishTs = [1, 20];
MinimizeRooms = 100;
RolesSoftContinuity = [|1, 2, 3, 4|4, 3, 1, 2|];
SameDegreeInRoom = 20;
Mergeability = 0;
